45754
0 1 0 0 1 0 1 1 1 0 0 1 1 1 0 0 0 0 1 1 1 1 0 0 0 1 0 1 1 1 
7 19 21 18 21 12 21 28 18 28 4 28 13 1 6 18 1 20 18 28 7 21 1 27 20 18 27 19 29 1 6 4 4 21 11 6 8 8 27 18 7 8 6 4 8 4 13 27 19 19 27 21 27 18 8 12 25 8 18 25 29 6 7 8 13 11 19 19 6 25 7 12 6 20 13 13 20 20 8 27 13 28 20 25 29 13 6 13 27 7 28 6 25 25 13 1 11 12 28 28 6 21 25 7 4 11 4 27 18 13 19 29 7 12 12 8 11 7 19 8 4 11 28 4 4 18 28 11 4 19 28 21 25 20 1 8 1 8 28 19 12 18 12 11 25 1 27 21 18 25 18 6 13 28 8 11 21 21 13 13 13 11 20 11 1 25 1 29 1 21 1 20 19 19 29 28 27 20 29 20 1 21 27 6 12 8 11 13 28 21 28 21 6 4 7 12 7 21 20 19 
